c 3 - XORSAT
p cnf 10 40
-1 -2 -4 0
-1 2 4 0
1 -2 4 0
1 2 -4 0
5 6 7 0
-5 -6 7 0
-5 6 -7 0
5 -6 -7 0
-6 -8 -9 0
-6 8 9 0
6 -8 9 0
6 8 -9 0
-2 -3 -9 0
-2 3 9 0
2 -3 9 0
2 3 -9 0
-2 -5 -7 0
-2 5 7 0
2 -5 7 0
2 5 -7 0
1 7 10 0
-1 -7 10 0
-1 7 -10 0
1 -7 -10 0
-6 -8 -10 0
-6 8 10 0
6 -8 10 0
6 8 -10 0
-3 -9 -5 0
-3 9 5 0
3 -9 5 0
3 9 -5 0
1 3 4 0
-1 -3 4 0
-1 3 -4 0
1 -3 -4 0
4 10 8 0
-4 -10 8 0
-4 10 -8 0
4 -10 -8 0
